4 
5  15 30 41 55 
6  08 22 37 50 
7  05 20 35 50 
8  05 20 35 50 
9  05 20 35 50 
10  04 19 34 49 
11  04 19 34 49 
12  04 19 34 49 
13  04 19 34 49 
14  04 19 34 49 
15  04 19 34 49 
16  04 19 34 49 
17  04 19 34 49 
18  05 20 35 50 
19  05 21 36 51 
20  06 19 30 45 
21  00 15 30 45 
22  00 14 28 40 55 
23  10 
0 
